c FILE /home/rafael/Documents/HappySet/MIHS/inputs/happygen/output/graph_d_regular_k4_p0.3_v50_20241127_082615.txt
c SOURCE This is a d-regular graph formed for the happy graph colouring problem.
c DESCRIPTION It was generated using the problem generator of Rhyd Lewis
c
c GRAPH STATS
c Seed                             = -545079017
c Number of Nodes                  = 50
c Number of colours k              = 4
c Number of pre-assignments        = 15
c Degree of all vertices           = 6
c Density                          = 0.122449
c 
c The degrees of nodes 1 to 50, respectively, are as follows 
c [6, 6, 6, 6, 6, 6, 6, 6, 6, 6, 6, 6, 6, 6, 6, 6, 6, 6, 6, 6, 6, 6, 6, 6, 6, 6, 
c  6, 6, 6, 6, 6, 6, 6, 6, 6, 6, 6, 6, 6, 6, 6, 6, 6, 6, 6, 6, 6, 6, 6, 6] 
c  
p edge 50 150 4
e 1 17
e 1 20
e 1 22
e 1 24
e 1 31
e 1 41
e 2 3
e 2 4
e 2 28
e 2 30
e 2 37
e 2 50
e 3 19
e 3 25
e 3 29
e 3 30
e 3 50
e 4 12
e 4 21
e 4 37
e 4 40
e 4 44
e 5 14
e 5 23
e 5 34
e 5 35
e 5 44
e 5 45
e 6 10
e 6 16
e 6 24
e 6 29
e 6 31
e 6 36
e 7 8
e 7 13
e 7 21
e 7 24
e 7 36
e 7 43
e 8 17
e 8 22
e 8 27
e 8 33
e 8 47
e 9 12
e 9 15
e 9 34
e 9 37
e 9 43
e 9 49
e 10 15
e 10 33
e 10 36
e 10 46
e 10 47
e 11 20
e 11 21
e 11 25
e 11 27
e 11 31
e 11 41
e 12 26
e 12 43
e 12 49
e 12 50
e 13 18
e 13 25
e 13 26
e 13 33
e 13 42
e 14 34
e 14 36
e 14 37
e 14 44
e 14 47
e 15 41
e 15 42
e 15 45
e 15 46
e 16 18
e 16 25
e 16 29
e 16 40
e 16 42
e 17 18
e 17 19
e 17 26
e 17 34
e 18 19
e 18 39
e 18 45
e 19 27
e 19 33
e 19 49
e 20 23
e 20 39
e 20 45
e 20 47
e 21 24
e 21 29
e 21 44
e 22 32
e 22 33
e 22 37
e 22 43
e 23 28
e 23 30
e 23 46
e 23 48
e 24 38
e 24 43
e 25 48
e 25 50
e 26 35
e 26 36
e 26 40
e 27 28
e 27 34
e 27 39
e 28 35
e 28 38
e 28 42
e 29 32
e 29 49
e 30 34
e 30 38
e 30 48
e 31 35
e 31 41
e 31 46
e 32 37
e 32 42
e 32 45
e 32 48
e 33 41
e 35 38
e 35 45
e 36 40
e 38 39
e 38 50
e 39 40
e 39 47
e 40 44
e 41 46
e 42 43
e 44 48
e 46 47
e 48 49
e 49 50
n 2 1
n 3 1
n 4 1
n 6 3
n 15 3
n 17 4
n 24 3
n 25 1
n 31 3
n 32 2
n 33 1
n 35 3
n 39 2
n 43 3
n 50 1
